\* Bay_Assignment *\
Minimize
obj_fun: 9000 w_1 + 21250 x_1A_A1 + 141666.666667 x_1A_A10
 + 283333.333333 x_1A_A11 + 283333.333333 x_1A_A12 + 283333.333333 x_1A_A13
 + 283333.333333 x_1A_A14 + 283333.333333 x_1A_A15 + 21250 x_1A_A2
 + 56666.6666667 x_1A_A3 + 56666.6666667 x_1A_A4 + 85000 x_1A_A5
 + 85000 x_1A_A6 + 113333.333333 x_1A_A7 + 113333.333333 x_1A_A8
 + 141666.666667 x_1A_A9 + 283.333333333 x_1A_B1 + 3045.83333333 x_1A_B10
 + 283.333333333 x_1A_B2 + 779.166666667 x_1A_B3 + 155.833333333 x_1A_B4
 + 1204.16666667 x_1A_B5 + 1204.16666667 x_1A_B6 + 1629.16666667 x_1A_B7
 + 1629.16666667 x_1A_B8 + 3045.83333333 x_1A_B9 + 21250 x_1D_A1
 + 141666.666667 x_1D_A10 + 283333.333333 x_1D_A11 + 283333.333333 x_1D_A12
 + 283333.333333 x_1D_A13 + 283333.333333 x_1D_A14 + 283333.333333 x_1D_A15
 + 21250 x_1D_A2 + 56666.6666667 x_1D_A3 + 56666.6666667 x_1D_A4
 + 85000 x_1D_A5 + 85000 x_1D_A6 + 113333.333333 x_1D_A7
 + 113333.333333 x_1D_A8 + 141666.666667 x_1D_A9 + 283.333333333 x_1D_B1
 + 3045.83333333 x_1D_B10 + 283.333333333 x_1D_B2 + 77.9166666667 x_1D_B3
 + 779.166666667 x_1D_B4 + 1204.16666667 x_1D_B5 + 1204.16666667 x_1D_B6
 + 1629.16666667 x_1D_B7 + 1629.16666667 x_1D_B8 + 3045.83333333 x_1D_B9
 + 21250 x_1P_A1 + 141666.666667 x_1P_A10 + 283333.333333 x_1P_A11
 + 283333.333333 x_1P_A12 + 283333.333333 x_1P_A13 + 283333.333333 x_1P_A14
 + 283333.333333 x_1P_A15 + 21250 x_1P_A2 + 56666.6666667 x_1P_A3
 + 56666.6666667 x_1P_A4 + 85000 x_1P_A5 + 85000 x_1P_A6
 + 113333.333333 x_1P_A7 + 113333.333333 x_1P_A8 + 141666.666667 x_1P_A9
 + 283.333333333 x_1P_B1 + 3045.83333333 x_1P_B10 + 283.333333333 x_1P_B2
 + 779.166666667 x_1P_B3 + 779.166666667 x_1P_B4 + 1204.16666667 x_1P_B5
 + 1204.16666667 x_1P_B6 + 1629.16666667 x_1P_B7 + 1629.16666667 x_1P_B8
 + 3045.83333333 x_1P_B9 + 63750 x_1_A1 + 425000 x_1_A10 + 850000 x_1_A11
 + 850000 x_1_A12 + 850000 x_1_A13 + 850000 x_1_A14 + 850000 x_1_A15
 + 63750 x_1_A2 + 170000 x_1_A3 + 170000 x_1_A4 + 255000 x_1_A5
 + 255000 x_1_A6 + 340000 x_1_A7 + 340000 x_1_A8 + 425000 x_1_A9 + 850 x_1_B1
 + 9137.5 x_1_B10 + 850 x_1_B2 + 2337.5 x_1_B3 + 467.5 x_1_B4 + 3612.5 x_1_B5
 + 3612.5 x_1_B6 + 4887.5 x_1_B7 + 4887.5 x_1_B8 + 9137.5 x_1_B9
 + 41550 x_2_A1 + 277000 x_2_A10 + 554000 x_2_A11 + 554000 x_2_A12
 + 554000 x_2_A13 + 554000 x_2_A14 + 554000 x_2_A15 + 41550 x_2_A2
 + 110800 x_2_A3 + 110800 x_2_A4 + 166200 x_2_A5 + 166200 x_2_A6
 + 221600 x_2_A7 + 221600 x_2_A8 + 277000 x_2_A9 + 554 x_2_B1 + 5955.5 x_2_B10
 + 554 x_2_B2 + 1523.5 x_2_B3 + 1523.5 x_2_B4 + 2354.5 x_2_B5 + 2354.5 x_2_B6
 + 3185.5 x_2_B7 + 3185.5 x_2_B8 + 5955.5 x_2_B9 + 81600 x_3_A1
 + 544000 x_3_A10 + 1088000 x_3_A11 + 1088000 x_3_A12 + 1088000 x_3_A13
 + 1088000 x_3_A14 + 1088000 x_3_A15 + 81600 x_3_A2 + 217600 x_3_A3
 + 217600 x_3_A4 + 326400 x_3_A5 + 326400 x_3_A6 + 435200 x_3_A7
 + 435200 x_3_A8 + 544000 x_3_A9 + 1088 x_3_B1 + 11696 x_3_B10 + 1088 x_3_B2
 + 2992 x_3_B3 + 2992 x_3_B4 + 4624 x_3_B5 + 4624 x_3_B6 + 6256 x_3_B7
 + 6256 x_3_B8 + 11696 x_3_B9
Subject To
AssignmentConstraint_Flight:2: x_2_A1 + x_2_A10 + x_2_A11 + x_2_A12 + x_2_A13
 + x_2_A14 + x_2_A15 + x_2_A2 + x_2_A3 + x_2_A4 + x_2_A5 + x_2_A6 + x_2_A7
 + x_2_A8 + x_2_A9 + x_2_B1 + x_2_B10 + x_2_B2 + x_2_B3 + x_2_B4 + x_2_B5
 + x_2_B6 + x_2_B7 + x_2_B8 + x_2_B9 = 1
AssignmentConstraint_Flight:3: x_3_A1 + x_3_A10 + x_3_A11 + x_3_A12 + x_3_A13
 + x_3_A14 + x_3_A15 + x_3_A2 + x_3_A3 + x_3_A4 + x_3_A5 + x_3_A6 + x_3_A7
 + x_3_A8 + x_3_A9 + x_3_B1 + x_3_B10 + x_3_B2 + x_3_B3 + x_3_B4 + x_3_B5
 + x_3_B6 + x_3_B7 + x_3_B8 + x_3_B9 = 1
AssignmentConstraint_FullTow_Flight:1: w_1 + x_1_A1 + x_1_A10 + x_1_A11
 + x_1_A12 + x_1_A13 + x_1_A14 + x_1_A15 + x_1_A2 + x_1_A3 + x_1_A4 + x_1_A5
 + x_1_A6 + x_1_A7 + x_1_A8 + x_1_A9 + x_1_B1 + x_1_B10 + x_1_B2 + x_1_B3
 + x_1_B4 + x_1_B5 + x_1_B6 + x_1_B7 + x_1_B8 + x_1_B9 = 1
AssignmentConstraint_SplitTow_Flight:1A: - w_1 + x_1A_A1 + x_1A_A10 + x_1A_A11
 + x_1A_A12 + x_1A_A13 + x_1A_A14 + x_1A_A15 + x_1A_A2 + x_1A_A3 + x_1A_A4
 + x_1A_A5 + x_1A_A6 + x_1A_A7 + x_1A_A8 + x_1A_A9 + x_1A_B1 + x_1A_B10
 + x_1A_B2 + x_1A_B3 + x_1A_B4 + x_1A_B5 + x_1A_B6 + x_1A_B7 + x_1A_B8
 + x_1A_B9 = 0
AssignmentConstraint_SplitTow_Flight:1D: - w_1 + x_1D_A1 + x_1D_A10 + x_1D_A11
 + x_1D_A12 + x_1D_A13 + x_1D_A14 + x_1D_A15 + x_1D_A2 + x_1D_A3 + x_1D_A4
 + x_1D_A5 + x_1D_A6 + x_1D_A7 + x_1D_A8 + x_1D_A9 + x_1D_B1 + x_1D_B10
 + x_1D_B2 + x_1D_B3 + x_1D_B4 + x_1D_B5 + x_1D_B6 + x_1D_B7 + x_1D_B8
 + x_1D_B9 = 0
AssignmentConstraint_SplitTow_Flight:1P: - w_1 + x_1P_A1 + x_1P_A10 + x_1P_A11
 + x_1P_A12 + x_1P_A13 + x_1P_A14 + x_1P_A15 + x_1P_A2 + x_1P_A3 + x_1P_A4
 + x_1P_A5 + x_1P_A6 + x_1P_A7 + x_1P_A8 + x_1P_A9 + x_1P_B1 + x_1P_B10
 + x_1P_B2 + x_1P_B3 + x_1P_B4 + x_1P_B5 + x_1P_B6 + x_1P_B7 + x_1P_B8
 + x_1P_B9 = 0
BayConstraint_Bay:1A_Flight:A10: x_1A_A10 = 0
BayConstraint_Bay:1A_Flight:A3: x_1A_A3 = 0
BayConstraint_Bay:1A_Flight:A4: x_1A_A4 = 0
BayConstraint_Bay:1A_Flight:A5: x_1A_A5 = 0
BayConstraint_Bay:1A_Flight:A6: x_1A_A6 = 0
BayConstraint_Bay:1A_Flight:A7: x_1A_A7 = 0
BayConstraint_Bay:1A_Flight:A8: x_1A_A8 = 0
BayConstraint_Bay:1A_Flight:A9: x_1A_A9 = 0
BayConstraint_Bay:1D_Flight:A10: x_1D_A10 = 0
BayConstraint_Bay:1D_Flight:A3: x_1D_A3 = 0
BayConstraint_Bay:1D_Flight:A4: x_1D_A4 = 0
BayConstraint_Bay:1D_Flight:A5: x_1D_A5 = 0
BayConstraint_Bay:1D_Flight:A6: x_1D_A6 = 0
BayConstraint_Bay:1D_Flight:A7: x_1D_A7 = 0
BayConstraint_Bay:1D_Flight:A8: x_1D_A8 = 0
BayConstraint_Bay:1D_Flight:A9: x_1D_A9 = 0
BayConstraint_Bay:1P_Flight:A1: x_1P_A1 = 0
BayConstraint_Bay:1P_Flight:A10: x_1P_A10 = 0
BayConstraint_Bay:1P_Flight:A2: x_1P_A2 = 0
BayConstraint_Bay:1P_Flight:A3: x_1P_A3 = 0
BayConstraint_Bay:1P_Flight:A4: x_1P_A4 = 0
BayConstraint_Bay:1P_Flight:A5: x_1P_A5 = 0
BayConstraint_Bay:1P_Flight:A6: x_1P_A6 = 0
BayConstraint_Bay:1P_Flight:A7: x_1P_A7 = 0
BayConstraint_Bay:1P_Flight:A8: x_1P_A8 = 0
BayConstraint_Bay:1P_Flight:A9: x_1P_A9 = 0
BayConstraint_Bay:1P_Flight:B1: x_1P_B1 = 0
BayConstraint_Bay:1P_Flight:B2: x_1P_B2 = 0
BayConstraint_Bay:1P_Flight:B3: x_1P_B3 = 0
BayConstraint_Bay:1P_Flight:B4: x_1P_B4 = 0
BayConstraint_Bay:1P_Flight:B5: x_1P_B5 = 0
BayConstraint_Bay:1P_Flight:B6: x_1P_B6 = 0
BayConstraint_Bay:1P_Flight:B7: x_1P_B7 = 0
BayConstraint_Bay:1P_Flight:B8: x_1P_B8 = 0
BayConstraint_Bay:1_Flight:A10: x_1_A10 = 0
BayConstraint_Bay:1_Flight:A3: x_1_A3 = 0
BayConstraint_Bay:1_Flight:A4: x_1_A4 = 0
BayConstraint_Bay:1_Flight:A5: x_1_A5 = 0
BayConstraint_Bay:1_Flight:A6: x_1_A6 = 0
BayConstraint_Bay:1_Flight:A7: x_1_A7 = 0
BayConstraint_Bay:1_Flight:A8: x_1_A8 = 0
BayConstraint_Bay:1_Flight:A9: x_1_A9 = 0
BayConstraint_Bay:2_Flight:A10: x_2_A10 = 0
BayConstraint_Bay:2_Flight:A3: x_2_A3 = 0
BayConstraint_Bay:2_Flight:A4: x_2_A4 = 0
BayConstraint_Bay:2_Flight:A5: x_2_A5 = 0
BayConstraint_Bay:2_Flight:A6: x_2_A6 = 0
BayConstraint_Bay:2_Flight:A7: x_2_A7 = 0
BayConstraint_Bay:2_Flight:A8: x_2_A8 = 0
BayConstraint_Bay:2_Flight:A9: x_2_A9 = 0
BayConstraint_Bay:3_Flight:A10: x_3_A10 = 0
BayConstraint_Bay:3_Flight:A11: x_3_A11 = 0
BayConstraint_Bay:3_Flight:A12: x_3_A12 = 0
BayConstraint_Bay:3_Flight:A13: x_3_A13 = 0
BayConstraint_Bay:3_Flight:A14: x_3_A14 = 0
BayConstraint_Bay:3_Flight:A15: x_3_A15 = 0
BayConstraint_Bay:3_Flight:A3: x_3_A3 = 0
BayConstraint_Bay:3_Flight:A4: x_3_A4 = 0
BayConstraint_Bay:3_Flight:A5: x_3_A5 = 0
BayConstraint_Bay:3_Flight:A6: x_3_A6 = 0
BayConstraint_Bay:3_Flight:A7: x_3_A7 = 0
BayConstraint_Bay:3_Flight:A8: x_3_A8 = 0
BayConstraint_Bay:3_Flight:A9: x_3_A9 = 0
BayConstraint_Bay:3_Flight:B10: x_3_B10 = 0
BayConstraint_Bay:3_Flight:B3: x_3_B3 = 0
BayConstraint_Bay:3_Flight:B4: x_3_B4 = 0
BayConstraint_Bay:3_Flight:B5: x_3_B5 = 0
BayConstraint_Bay:3_Flight:B6: x_3_B6 = 0
BayConstraint_Bay:3_Flight:B7: x_3_B7 = 0
BayConstraint_Bay:3_Flight:B8: x_3_B8 = 0
BayConstraint_Bay:3_Flight:B9: x_3_B9 = 0
TimeConstraint_Flights:1D&2_Bay:A1: x_1D_A1 + x_2_A1 <= 1
TimeConstraint_Flights:1D&2_Bay:A10: x_1D_A10 + x_2_A10 <= 1
TimeConstraint_Flights:1D&2_Bay:A11: x_1D_A11 + x_2_A11 <= 1
TimeConstraint_Flights:1D&2_Bay:A12: x_1D_A12 + x_2_A12 <= 1
TimeConstraint_Flights:1D&2_Bay:A13: x_1D_A13 + x_2_A13 <= 1
TimeConstraint_Flights:1D&2_Bay:A14: x_1D_A14 + x_2_A14 <= 1
TimeConstraint_Flights:1D&2_Bay:A15: x_1D_A15 + x_2_A15 <= 1
TimeConstraint_Flights:1D&2_Bay:A2: x_1D_A2 + x_2_A2 <= 1
TimeConstraint_Flights:1D&2_Bay:A3: x_1D_A3 + x_2_A3 <= 1
TimeConstraint_Flights:1D&2_Bay:A4: x_1D_A4 + x_2_A4 <= 1
TimeConstraint_Flights:1D&2_Bay:A5: x_1D_A5 + x_2_A5 <= 1
TimeConstraint_Flights:1D&2_Bay:A6: x_1D_A6 + x_2_A6 <= 1
TimeConstraint_Flights:1D&2_Bay:A7: x_1D_A7 + x_2_A7 <= 1
TimeConstraint_Flights:1D&2_Bay:A8: x_1D_A8 + x_2_A8 <= 1
TimeConstraint_Flights:1D&2_Bay:A9: x_1D_A9 + x_2_A9 <= 1
TimeConstraint_Flights:1D&2_Bay:B1: x_1D_B1 + x_2_B1 <= 1
TimeConstraint_Flights:1D&2_Bay:B10: x_1D_B10 + x_2_B10 <= 1
TimeConstraint_Flights:1D&2_Bay:B2: x_1D_B2 + x_2_B2 <= 1
TimeConstraint_Flights:1D&2_Bay:B3: x_1D_B3 + x_2_B3 <= 1
TimeConstraint_Flights:1D&2_Bay:B4: x_1D_B4 + x_2_B4 <= 1
TimeConstraint_Flights:1D&2_Bay:B5: x_1D_B5 + x_2_B5 <= 1
TimeConstraint_Flights:1D&2_Bay:B6: x_1D_B6 + x_2_B6 <= 1
TimeConstraint_Flights:1D&2_Bay:B7: x_1D_B7 + x_2_B7 <= 1
TimeConstraint_Flights:1D&2_Bay:B8: x_1D_B8 + x_2_B8 <= 1
TimeConstraint_Flights:1D&2_Bay:B9: x_1D_B9 + x_2_B9 <= 1
TimeConstraint_Flights:1P&2_Bay:A1: x_1P_A1 + x_2_A1 <= 1
TimeConstraint_Flights:1P&2_Bay:A10: x_1P_A10 + x_2_A10 <= 1
TimeConstraint_Flights:1P&2_Bay:A11: x_1P_A11 + x_2_A11 <= 1
TimeConstraint_Flights:1P&2_Bay:A12: x_1P_A12 + x_2_A12 <= 1
TimeConstraint_Flights:1P&2_Bay:A13: x_1P_A13 + x_2_A13 <= 1
TimeConstraint_Flights:1P&2_Bay:A14: x_1P_A14 + x_2_A14 <= 1
TimeConstraint_Flights:1P&2_Bay:A15: x_1P_A15 + x_2_A15 <= 1
TimeConstraint_Flights:1P&2_Bay:A2: x_1P_A2 + x_2_A2 <= 1
TimeConstraint_Flights:1P&2_Bay:A3: x_1P_A3 + x_2_A3 <= 1
TimeConstraint_Flights:1P&2_Bay:A4: x_1P_A4 + x_2_A4 <= 1
TimeConstraint_Flights:1P&2_Bay:A5: x_1P_A5 + x_2_A5 <= 1
TimeConstraint_Flights:1P&2_Bay:A6: x_1P_A6 + x_2_A6 <= 1
TimeConstraint_Flights:1P&2_Bay:A7: x_1P_A7 + x_2_A7 <= 1
TimeConstraint_Flights:1P&2_Bay:A8: x_1P_A8 + x_2_A8 <= 1
TimeConstraint_Flights:1P&2_Bay:A9: x_1P_A9 + x_2_A9 <= 1
TimeConstraint_Flights:1P&2_Bay:B1: x_1P_B1 + x_2_B1 <= 1
TimeConstraint_Flights:1P&2_Bay:B10: x_1P_B10 + x_2_B10 <= 1
TimeConstraint_Flights:1P&2_Bay:B2: x_1P_B2 + x_2_B2 <= 1
TimeConstraint_Flights:1P&2_Bay:B3: x_1P_B3 + x_2_B3 <= 1
TimeConstraint_Flights:1P&2_Bay:B4: x_1P_B4 + x_2_B4 <= 1
TimeConstraint_Flights:1P&2_Bay:B5: x_1P_B5 + x_2_B5 <= 1
TimeConstraint_Flights:1P&2_Bay:B6: x_1P_B6 + x_2_B6 <= 1
TimeConstraint_Flights:1P&2_Bay:B7: x_1P_B7 + x_2_B7 <= 1
TimeConstraint_Flights:1P&2_Bay:B8: x_1P_B8 + x_2_B8 <= 1
TimeConstraint_Flights:1P&2_Bay:B9: x_1P_B9 + x_2_B9 <= 1
TimeConstraint_Flights:2&1_Bay:A1: x_1_A1 + x_2_A1 <= 1
TimeConstraint_Flights:2&1_Bay:A10: x_1_A10 + x_2_A10 <= 1
TimeConstraint_Flights:2&1_Bay:A11: x_1_A11 + x_2_A11 <= 1
TimeConstraint_Flights:2&1_Bay:A12: x_1_A12 + x_2_A12 <= 1
TimeConstraint_Flights:2&1_Bay:A13: x_1_A13 + x_2_A13 <= 1
TimeConstraint_Flights:2&1_Bay:A14: x_1_A14 + x_2_A14 <= 1
TimeConstraint_Flights:2&1_Bay:A15: x_1_A15 + x_2_A15 <= 1
TimeConstraint_Flights:2&1_Bay:A2: x_1_A2 + x_2_A2 <= 1
TimeConstraint_Flights:2&1_Bay:A3: x_1_A3 + x_2_A3 <= 1
TimeConstraint_Flights:2&1_Bay:A4: x_1_A4 + x_2_A4 <= 1
TimeConstraint_Flights:2&1_Bay:A5: x_1_A5 + x_2_A5 <= 1
TimeConstraint_Flights:2&1_Bay:A6: x_1_A6 + x_2_A6 <= 1
TimeConstraint_Flights:2&1_Bay:A7: x_1_A7 + x_2_A7 <= 1
TimeConstraint_Flights:2&1_Bay:A8: x_1_A8 + x_2_A8 <= 1
TimeConstraint_Flights:2&1_Bay:A9: x_1_A9 + x_2_A9 <= 1
TimeConstraint_Flights:2&1_Bay:B1: x_1_B1 + x_2_B1 <= 1
TimeConstraint_Flights:2&1_Bay:B10: x_1_B10 + x_2_B10 <= 1
TimeConstraint_Flights:2&1_Bay:B2: x_1_B2 + x_2_B2 <= 1
TimeConstraint_Flights:2&1_Bay:B3: x_1_B3 + x_2_B3 <= 1
TimeConstraint_Flights:2&1_Bay:B4: x_1_B4 + x_2_B4 <= 1
TimeConstraint_Flights:2&1_Bay:B5: x_1_B5 + x_2_B5 <= 1
TimeConstraint_Flights:2&1_Bay:B6: x_1_B6 + x_2_B6 <= 1
TimeConstraint_Flights:2&1_Bay:B7: x_1_B7 + x_2_B7 <= 1
TimeConstraint_Flights:2&1_Bay:B8: x_1_B8 + x_2_B8 <= 1
TimeConstraint_Flights:2&1_Bay:B9: x_1_B9 + x_2_B9 <= 1
Binaries
w_1
x_1A_A1
x_1A_A10
x_1A_A11
x_1A_A12
x_1A_A13
x_1A_A14
x_1A_A15
x_1A_A2
x_1A_A3
x_1A_A4
x_1A_A5
x_1A_A6
x_1A_A7
x_1A_A8
x_1A_A9
x_1A_B1
x_1A_B10
x_1A_B2
x_1A_B3
x_1A_B4
x_1A_B5
x_1A_B6
x_1A_B7
x_1A_B8
x_1A_B9
x_1D_A1
x_1D_A10
x_1D_A11
x_1D_A12
x_1D_A13
x_1D_A14
x_1D_A15
x_1D_A2
x_1D_A3
x_1D_A4
x_1D_A5
x_1D_A6
x_1D_A7
x_1D_A8
x_1D_A9
x_1D_B1
x_1D_B10
x_1D_B2
x_1D_B3
x_1D_B4
x_1D_B5
x_1D_B6
x_1D_B7
x_1D_B8
x_1D_B9
x_1P_A1
x_1P_A10
x_1P_A11
x_1P_A12
x_1P_A13
x_1P_A14
x_1P_A15
x_1P_A2
x_1P_A3
x_1P_A4
x_1P_A5
x_1P_A6
x_1P_A7
x_1P_A8
x_1P_A9
x_1P_B1
x_1P_B10
x_1P_B2
x_1P_B3
x_1P_B4
x_1P_B5
x_1P_B6
x_1P_B7
x_1P_B8
x_1P_B9
x_1_A1
x_1_A10
x_1_A11
x_1_A12
x_1_A13
x_1_A14
x_1_A15
x_1_A2
x_1_A3
x_1_A4
x_1_A5
x_1_A6
x_1_A7
x_1_A8
x_1_A9
x_1_B1
x_1_B10
x_1_B2
x_1_B3
x_1_B4
x_1_B5
x_1_B6
x_1_B7
x_1_B8
x_1_B9
x_2_A1
x_2_A10
x_2_A11
x_2_A12
x_2_A13
x_2_A14
x_2_A15
x_2_A2
x_2_A3
x_2_A4
x_2_A5
x_2_A6
x_2_A7
x_2_A8
x_2_A9
x_2_B1
x_2_B10
x_2_B2
x_2_B3
x_2_B4
x_2_B5
x_2_B6
x_2_B7
x_2_B8
x_2_B9
x_3_A1
x_3_A10
x_3_A11
x_3_A12
x_3_A13
x_3_A14
x_3_A15
x_3_A2
x_3_A3
x_3_A4
x_3_A5
x_3_A6
x_3_A7
x_3_A8
x_3_A9
x_3_B1
x_3_B10
x_3_B2
x_3_B3
x_3_B4
x_3_B5
x_3_B6
x_3_B7
x_3_B8
x_3_B9
End
